problems/csplib-prob010/SocialGolfersProblem-models/noch/O2/lingeling/model_3-ord03-7-4-2-solution000001.solution
language Essence 1.3

letting Golfers be new type enum
        {Golfers_1, Golfers_2, Golfers_3, Golfers_4, Golfers_5, Golfers_6, Golfers_7, Golfers_8}
letting sched be {partition({Golfers_6})}
